
Gurobi 8.1.0 (win64, Python) logging started 04/18/19 12:05:03

Academic license - for non-commercial use only
Optimize a model with 208 rows, 4040 columns and 832 nonzeros
Coefficient statistics:
  Matrix range     [1e+00, 1e+00]
  Objective range  [5e+01, 1e+06]
  Bounds range     [0e+00, 0e+00]
  RHS range        [1e+00, 1e+00]
Presolve removed 208 rows and 4040 columns
Presolve time: 0.02s
Presolve: All rows and columns removed
Iteration    Objective       Primal Inf.    Dual Inf.      Time
       0    2.2602537e+06   0.000000e+00   0.000000e+00      0s

Solved in 0 iterations and 0.02 seconds
Optimal objective  2.260253734e+06

Gurobi 8.1.0 (win64, Python) logging started 04/20/19 10:04:30

Academic license - for non-commercial use only
Optimize a model with 208 rows, 4040 columns and 832 nonzeros
Coefficient statistics:
  Matrix range     [1e+00, 1e+00]
  Objective range  [5e+01, 1e+06]
  Bounds range     [0e+00, 0e+00]
  RHS range        [1e+00, 1e+00]
Presolve removed 208 rows and 4040 columns
Presolve time: 0.02s
Presolve: All rows and columns removed
Iteration    Objective       Primal Inf.    Dual Inf.      Time
       0    2.2602537e+06   0.000000e+00   0.000000e+00      0s

Solved in 0 iterations and 0.02 seconds
Optimal objective  2.260253734e+06
Optimize a model with 208 rows, 4040 columns and 832 nonzeros
Coefficient statistics:
  Matrix range     [1e+00, 1e+00]
  Objective range  [5e+01, 1e+06]
  Bounds range     [0e+00, 0e+00]
  RHS range        [1e+00, 1e+00]
Presolve removed 208 rows and 4040 columns
Presolve time: 0.00s
Presolve: All rows and columns removed
Iteration    Objective       Primal Inf.    Dual Inf.      Time
       0    2.2602537e+06   0.000000e+00   0.000000e+00      0s

Solved in 0 iterations and 0.02 seconds
Optimal objective  2.260253734e+06
Optimize a model with 208 rows, 4040 columns and 832 nonzeros
Coefficient statistics:
  Matrix range     [1e+00, 1e+00]
  Objective range  [5e+01, 1e+06]
  Bounds range     [0e+00, 0e+00]
  RHS range        [1e+00, 1e+00]
Presolve removed 208 rows and 4040 columns
Presolve time: 0.01s
Presolve: All rows and columns removed
Iteration    Objective       Primal Inf.    Dual Inf.      Time
       0    2.2602537e+06   0.000000e+00   0.000000e+00      0s

Solved in 0 iterations and 0.02 seconds
Optimal objective  2.260253734e+06
Optimize a model with 208 rows, 4040 columns and 832 nonzeros
Coefficient statistics:
  Matrix range     [1e+00, 1e+00]
  Objective range  [5e+01, 1e+06]
  Bounds range     [0e+00, 0e+00]
  RHS range        [1e+00, 1e+00]
Presolve removed 208 rows and 4040 columns
Presolve time: 0.02s
Presolve: All rows and columns removed
Iteration    Objective       Primal Inf.    Dual Inf.      Time
       0    2.2602537e+06   0.000000e+00   0.000000e+00      0s

Solved in 0 iterations and 0.02 seconds
Optimal objective  2.260253734e+06
Optimize a model with 208 rows, 4040 columns and 832 nonzeros
Coefficient statistics:
  Matrix range     [1e+00, 1e+00]
  Objective range  [5e+01, 1e+06]
  Bounds range     [0e+00, 0e+00]
  RHS range        [1e+00, 1e+00]
Presolve removed 208 rows and 4040 columns
Presolve time: 0.01s
Presolve: All rows and columns removed
Iteration    Objective       Primal Inf.    Dual Inf.      Time
       0    2.2602537e+06   0.000000e+00   0.000000e+00      0s

Solved in 0 iterations and 0.02 seconds
Optimal objective  2.260253734e+06
Optimize a model with 344 rows, 4040 columns and 3212 nonzeros
Coefficient statistics:
  Matrix range     [1e+00, 1e+00]
  Objective range  [5e+01, 1e+06]
  Bounds range     [0e+00, 0e+00]
  RHS range        [1e+00, 3e+01]
Presolve removed 344 rows and 4040 columns
Presolve time: 0.02s
Presolve: All rows and columns removed
Iteration    Objective       Primal Inf.    Dual Inf.      Time
       0    2.2602537e+06   0.000000e+00   0.000000e+00      0s

Solved in 0 iterations and 0.02 seconds
Optimal objective  2.260253734e+06
Optimize a model with 208 rows, 4040 columns and 832 nonzeros
Coefficient statistics:
  Matrix range     [1e+00, 1e+00]
  Objective range  [5e+01, 1e+06]
  Bounds range     [0e+00, 0e+00]
  RHS range        [1e+00, 1e+00]
Presolve removed 208 rows and 4040 columns
Presolve time: 0.01s
Presolve: All rows and columns removed
Iteration    Objective       Primal Inf.    Dual Inf.      Time
       0    2.2602537e+06   0.000000e+00   0.000000e+00      0s

Solved in 0 iterations and 0.02 seconds
Optimal objective  2.260253734e+06
Optimize a model with 208 rows, 4040 columns and 832 nonzeros
Coefficient statistics:
  Matrix range     [1e+00, 1e+00]
  Objective range  [5e+01, 1e+06]
  Bounds range     [0e+00, 0e+00]
  RHS range        [1e+00, 1e+00]
Presolve removed 208 rows and 4040 columns
Presolve time: 0.02s
Presolve: All rows and columns removed
Iteration    Objective       Primal Inf.    Dual Inf.      Time
       0    2.2602537e+06   0.000000e+00   0.000000e+00      0s

Solved in 0 iterations and 0.03 seconds
Optimal objective  2.260253734e+06
Optimize a model with 212 rows, 4040 columns and 968 nonzeros
Coefficient statistics:
  Matrix range     [1e+00, 1e+00]
  Objective range  [5e+01, 1e+06]
  Bounds range     [0e+00, 0e+00]
  RHS range        [1e+00, 3e+01]
Presolve removed 212 rows and 4040 columns
Presolve time: 0.00s
Presolve: All rows and columns removed
Iteration    Objective       Primal Inf.    Dual Inf.      Time
       0    2.2602537e+06   0.000000e+00   0.000000e+00      0s

Solved in 0 iterations and 0.02 seconds
Optimal objective  2.260253734e+06
Optimize a model with 628 rows, 4040 columns and 4906 nonzeros
Coefficient statistics:
  Matrix range     [1e+00, 3e+02]
  Objective range  [5e+01, 1e+06]
  Bounds range     [0e+00, 0e+00]
  RHS range        [1e+00, 6e+02]
Presolve removed 46 rows and 2409 columns
Presolve time: 0.02s
Presolved: 582 rows, 1631 columns, 3794 nonzeros

Iteration    Objective       Primal Inf.    Dual Inf.      Time
       0    2.3158807e+06   1.423938e+03   0.000000e+00      0s
     274    2.7817090e+06   0.000000e+00   0.000000e+00      0s

Solved in 274 iterations and 0.03 seconds
Optimal objective  2.781708957e+06
Optimize a model with 628 rows, 4040 columns and 4906 nonzeros
Coefficient statistics:
  Matrix range     [1e+00, 3e+02]
  Objective range  [5e+01, 1e+06]
  Bounds range     [0e+00, 0e+00]
  RHS range        [1e+00, 6e+02]
Presolve removed 46 rows and 2409 columns
Presolve time: 0.02s
Presolved: 582 rows, 1631 columns, 3794 nonzeros

Iteration    Objective       Primal Inf.    Dual Inf.      Time
       0    2.3158807e+06   1.423938e+03   0.000000e+00      0s
     274    2.7817090e+06   0.000000e+00   0.000000e+00      0s

Solved in 274 iterations and 0.03 seconds
Optimal objective  2.781708957e+06
Optimize a model with 628 rows, 4040 columns and 4906 nonzeros
Coefficient statistics:
  Matrix range     [1e+00, 3e+02]
  Objective range  [5e+01, 1e+06]
  Bounds range     [0e+00, 0e+00]
  RHS range        [1e+00, 6e+02]
Presolve removed 46 rows and 2409 columns
Presolve time: 0.02s
Presolved: 582 rows, 1631 columns, 3794 nonzeros

Iteration    Objective       Primal Inf.    Dual Inf.      Time
       0    2.3158807e+06   1.423938e+03   0.000000e+00      0s
     274    2.7817090e+06   0.000000e+00   0.000000e+00      0s

Solved in 274 iterations and 0.02 seconds
Optimal objective  2.781708957e+06
Optimize a model with 420 rows, 4040 columns and 4074 nonzeros
Coefficient statistics:
  Matrix range     [1e+00, 3e+02]
  Objective range  [5e+01, 1e+06]
  Bounds range     [0e+00, 0e+00]
  RHS range        [1e+00, 6e+02]
Presolve removed 82 rows and 3245 columns
Presolve time: 0.00s
Presolved: 338 rows, 795 columns, 1458 nonzeros

Iteration    Objective       Primal Inf.    Dual Inf.      Time
       0    2.4062988e+05   6.287250e+03   0.000000e+00      0s
     443    1.4473274e+06   0.000000e+00   0.000000e+00      0s

Solved in 443 iterations and 0.02 seconds
Optimal objective  1.447327434e+06
Optimize a model with 420 rows, 4040 columns and 4074 nonzeros
Coefficient statistics:
  Matrix range     [1e+00, 3e+02]
  Objective range  [5e+01, 1e+06]
  Bounds range     [0e+00, 0e+00]
  RHS range        [1e+00, 6e+02]
Presolve removed 82 rows and 3245 columns
Presolve time: 0.02s
Presolved: 338 rows, 795 columns, 1458 nonzeros

Iteration    Objective       Primal Inf.    Dual Inf.      Time
       0    2.4062988e+05   6.287250e+03   0.000000e+00      0s
     443    1.4473274e+06   0.000000e+00   0.000000e+00      0s

Solved in 443 iterations and 0.03 seconds
Optimal objective  1.447327434e+06
Optimize a model with 420 rows, 4040 columns and 4074 nonzeros
Coefficient statistics:
  Matrix range     [1e+00, 3e+02]
  Objective range  [5e+01, 1e+06]
  Bounds range     [0e+00, 0e+00]
  RHS range        [1e+00, 6e+02]
Presolve removed 82 rows and 3245 columns
Presolve time: 0.02s
Presolved: 338 rows, 795 columns, 1458 nonzeros

Iteration    Objective       Primal Inf.    Dual Inf.      Time
       0    2.4062988e+05   6.287250e+03   0.000000e+00      0s
     443    1.4473274e+06   0.000000e+00   0.000000e+00      0s

Solved in 443 iterations and 0.03 seconds
Optimal objective  1.447327434e+06
Optimize a model with 420 rows, 4040 columns and 4074 nonzeros
Coefficient statistics:
  Matrix range     [1e+00, 3e+02]
  Objective range  [5e+01, 1e+06]
  Bounds range     [0e+00, 0e+00]
  RHS range        [1e+00, 6e+02]
Presolve removed 82 rows and 3245 columns
Presolve time: 0.02s
Presolved: 338 rows, 795 columns, 1458 nonzeros

Iteration    Objective       Primal Inf.    Dual Inf.      Time
       0    2.4062988e+05   6.287250e+03   0.000000e+00      0s
     443    1.4473274e+06   0.000000e+00   0.000000e+00      0s

Solved in 443 iterations and 0.03 seconds
Optimal objective  1.447327434e+06
Optimize a model with 652 rows, 4040 columns and 5252 nonzeros
Coefficient statistics:
  Matrix range     [1e+00, 3e+02]
  Objective range  [5e+01, 1e+06]
  Bounds range     [0e+00, 0e+00]
  RHS range        [1e+00, 8e+02]
Presolve removed 56 rows and 2306 columns
Presolve time: 0.01s
Presolved: 596 rows, 1734 columns, 3997 nonzeros

Iteration    Objective       Primal Inf.    Dual Inf.      Time
       0    2.4343629e+06   6.362875e+03   0.000000e+00      0s
     303    3.1125678e+06   0.000000e+00   0.000000e+00      0s

Solved in 303 iterations and 0.03 seconds
Optimal objective  3.112567815e+06
Optimize a model with 652 rows, 4040 columns and 5252 nonzeros
Coefficient statistics:
  Matrix range     [1e+00, 3e+02]
  Objective range  [5e+01, 1e+06]
  Bounds range     [0e+00, 0e+00]
  RHS range        [1e+00, 8e+02]
Presolve removed 56 rows and 2306 columns
Presolve time: 0.01s
Presolved: 596 rows, 1734 columns, 3997 nonzeros

Iteration    Objective       Primal Inf.    Dual Inf.      Time
       0    2.4343629e+06   6.362875e+03   0.000000e+00      0s
     303    3.1125678e+06   0.000000e+00   0.000000e+00      0s

Solved in 303 iterations and 0.02 seconds
Optimal objective  3.112567815e+06
Optimize a model with 652 rows, 4040 columns and 5252 nonzeros
Coefficient statistics:
  Matrix range     [1e+00, 3e+02]
  Objective range  [5e+01, 1e+06]
  Bounds range     [0e+00, 0e+00]
  RHS range        [1e+00, 8e+02]
Presolve removed 56 rows and 2306 columns
Presolve time: 0.01s
Presolved: 596 rows, 1734 columns, 3997 nonzeros

Iteration    Objective       Primal Inf.    Dual Inf.      Time
       0    2.4343629e+06   6.362875e+03   0.000000e+00      0s
     303    3.1125678e+06   0.000000e+00   0.000000e+00      0s

Solved in 303 iterations and 0.03 seconds
Optimal objective  3.112567815e+06
Optimize a model with 652 rows, 4040 columns and 5252 nonzeros
Coefficient statistics:
  Matrix range     [1e+00, 3e+02]
  Objective range  [5e+01, 1e+06]
  Bounds range     [0e+00, 0e+00]
  RHS range        [1e+00, 8e+02]
Presolve removed 56 rows and 2306 columns
Presolve time: 0.02s
Presolved: 596 rows, 1734 columns, 3997 nonzeros

Iteration    Objective       Primal Inf.    Dual Inf.      Time
       0    2.4343629e+06   6.362875e+03   0.000000e+00      0s
     303    3.1125678e+06   0.000000e+00   0.000000e+00      0s

Solved in 303 iterations and 0.03 seconds
Optimal objective  3.112567815e+06
Optimize a model with 652 rows, 4040 columns and 5252 nonzeros
Coefficient statistics:
  Matrix range     [1e+00, 3e+02]
  Objective range  [5e+01, 1e+06]
  Bounds range     [0e+00, 0e+00]
  RHS range        [1e+00, 8e+02]
Presolve removed 56 rows and 2306 columns
Presolve time: 0.00s
Presolved: 596 rows, 1734 columns, 3997 nonzeros

Iteration    Objective       Primal Inf.    Dual Inf.      Time
       0    2.4343629e+06   6.362875e+03   0.000000e+00      0s
     303    3.1125678e+06   0.000000e+00   0.000000e+00      0s

Solved in 303 iterations and 0.02 seconds
Optimal objective  3.112567815e+06
Optimize a model with 656 rows, 4040 columns and 5252 nonzeros
Coefficient statistics:
  Matrix range     [1e+00, 3e+02]
  Objective range  [5e+01, 1e+06]
  Bounds range     [0e+00, 0e+00]
  RHS range        [1e+00, 8e+02]
Presolve removed 60 rows and 2306 columns
Presolve time: 0.00s
Presolved: 596 rows, 1734 columns, 3997 nonzeros

Iteration    Objective       Primal Inf.    Dual Inf.      Time
       0    2.4343629e+06   6.362875e+03   0.000000e+00      0s
     303    3.1125678e+06   0.000000e+00   0.000000e+00      0s

Solved in 303 iterations and 0.02 seconds
Optimal objective  3.112567815e+06
Optimize a model with 656 rows, 4040 columns and 5252 nonzeros
Coefficient statistics:
  Matrix range     [1e+00, 3e+02]
  Objective range  [5e+01, 1e+06]
  Bounds range     [0e+00, 0e+00]
  RHS range        [1e+00, 8e+02]
Presolve removed 60 rows and 2306 columns
Presolve time: 0.02s
Presolved: 596 rows, 1734 columns, 3997 nonzeros

Iteration    Objective       Primal Inf.    Dual Inf.      Time
       0    2.4343629e+06   6.362875e+03   0.000000e+00      0s
     303    3.1125678e+06   0.000000e+00   0.000000e+00      0s

Solved in 303 iterations and 0.03 seconds
Optimal objective  3.112567815e+06
Optimize a model with 656 rows, 4040 columns and 5252 nonzeros
Coefficient statistics:
  Matrix range     [1e+00, 3e+02]
  Objective range  [5e+01, 1e+06]
  Bounds range     [0e+00, 0e+00]
  RHS range        [1e+00, 8e+02]
Presolve removed 60 rows and 2306 columns
Presolve time: 0.02s
Presolved: 596 rows, 1734 columns, 3997 nonzeros

Iteration    Objective       Primal Inf.    Dual Inf.      Time
       0    2.4343629e+06   6.362875e+03   0.000000e+00      0s
     303    3.1125678e+06   0.000000e+00   0.000000e+00      0s

Solved in 303 iterations and 0.03 seconds
Optimal objective  3.112567815e+06
Optimize a model with 656 rows, 4040 columns and 5252 nonzeros
Coefficient statistics:
  Matrix range     [1e+00, 3e+02]
  Objective range  [5e+01, 1e+06]
  Bounds range     [0e+00, 0e+00]
  RHS range        [1e+00, 8e+02]
Presolve removed 60 rows and 2306 columns
Presolve time: 0.02s
Presolved: 596 rows, 1734 columns, 3997 nonzeros

Iteration    Objective       Primal Inf.    Dual Inf.      Time
       0    2.4343629e+06   6.362875e+03   0.000000e+00      0s
     303    3.1125678e+06   0.000000e+00   0.000000e+00      0s

Solved in 303 iterations and 0.02 seconds
Optimal objective  3.112567815e+06
Optimize a model with 656 rows, 4040 columns and 5252 nonzeros
Coefficient statistics:
  Matrix range     [1e+00, 3e+02]
  Objective range  [5e+01, 1e+06]
  Bounds range     [0e+00, 0e+00]
  RHS range        [1e+00, 8e+02]
Presolve removed 60 rows and 2306 columns
Presolve time: 0.01s
Presolved: 596 rows, 1734 columns, 3997 nonzeros

Iteration    Objective       Primal Inf.    Dual Inf.      Time
       0    2.4343629e+06   6.362875e+03   0.000000e+00      0s
     303    3.1125678e+06   0.000000e+00   0.000000e+00      0s

Solved in 303 iterations and 0.03 seconds
Optimal objective  3.112567815e+06
Optimize a model with 652 rows, 4040 columns and 5252 nonzeros
Coefficient statistics:
  Matrix range     [1e+00, 3e+02]
  Objective range  [5e+01, 1e+06]
  Bounds range     [0e+00, 0e+00]
  RHS range        [1e+00, 8e+02]
Presolve removed 56 rows and 2306 columns
Presolve time: 0.02s
Presolved: 596 rows, 1734 columns, 3997 nonzeros

Iteration    Objective       Primal Inf.    Dual Inf.      Time
       0    2.4343629e+06   6.362875e+03   0.000000e+00      0s
     303    3.1125678e+06   0.000000e+00   0.000000e+00      0s

Solved in 303 iterations and 0.03 seconds
Optimal objective  3.112567815e+06
Optimize a model with 2323 rows, 4044 columns and 9062 nonzeros
Coefficient statistics:
  Matrix range     [1e+00, 3e+02]
  Objective range  [5e+01, 1e+06]
  Bounds range     [0e+00, 0e+00]
  RHS range        [1e+00, 1e+04]
Presolve removed 6 rows and 6 columns
Presolve time: 0.02s

Solved in 0 iterations and 0.02 seconds
Infeasible model
Optimize a model with 2323 rows, 4044 columns and 12390 nonzeros
Coefficient statistics:
  Matrix range     [1e+00, 3e+02]
  Objective range  [5e+01, 1e+06]
  Bounds range     [0e+00, 0e+00]
  RHS range        [1e+00, 1e+04]
Presolve removed 6 rows and 6 columns
Presolve time: 0.02s

Solved in 0 iterations and 0.02 seconds
Infeasible model
Optimize a model with 659 rows, 4044 columns and 5734 nonzeros
Coefficient statistics:
  Matrix range     [1e+00, 3e+02]
  Objective range  [5e+01, 1e+06]
  Bounds range     [0e+00, 0e+00]
  RHS range        [1e+00, 1e+04]
Presolve removed 6 rows and 1670 columns
Presolve time: 0.02s

Solved in 0 iterations and 0.02 seconds
Infeasible model
Optimize a model with 2323 rows, 4044 columns and 12390 nonzeros
Coefficient statistics:
  Matrix range     [1e+00, 3e+02]
  Objective range  [5e+01, 1e+06]
  Bounds range     [0e+00, 0e+00]
  RHS range        [1e+00, 1e+04]
Presolve removed 6 rows and 6 columns
Presolve time: 0.01s

Solved in 0 iterations and 0.02 seconds
Infeasible model

Gurobi 8.1.0 (win64, Python) logging started 04/20/19 16:59:26

Academic license - for non-commercial use only
Optimize a model with 2323 rows, 4044 columns and 12390 nonzeros
Coefficient statistics:
  Matrix range     [1e+00, 3e+02]
  Objective range  [5e+01, 1e+06]
  Bounds range     [0e+00, 0e+00]
  RHS range        [1e+00, 1e+04]
Presolve removed 6 rows and 6 columns
Presolve time: 0.00s

Solved in 0 iterations and 0.00 seconds
Infeasible model
Optimize a model with 2319 rows, 4044 columns and 12386 nonzeros
Coefficient statistics:
  Matrix range     [1e+00, 3e+02]
  Objective range  [5e+01, 1e+06]
  Bounds range     [0e+00, 0e+00]
  RHS range        [1e+00, 1e+04]
Presolve removed 52 rows and 594 columns
Presolve time: 0.02s
Presolved: 2267 rows, 3450 columns, 10844 nonzeros

Iteration    Objective       Primal Inf.    Dual Inf.      Time
       0    2.2086491e+06   7.194063e+03   0.000000e+00      0s
    1311    3.1234016e+06   0.000000e+00   0.000000e+00      0s

Solved in 1311 iterations and 0.06 seconds
Optimal objective  3.123401551e+06
Optimize a model with 2319 rows, 4044 columns and 12386 nonzeros
Coefficient statistics:
  Matrix range     [1e+00, 3e+02]
  Objective range  [5e+01, 1e+06]
  Bounds range     [0e+00, 0e+00]
  RHS range        [1e+00, 1e+04]
Presolve removed 52 rows and 594 columns
Presolve time: 0.02s
Presolved: 2267 rows, 3450 columns, 10844 nonzeros

Iteration    Objective       Primal Inf.    Dual Inf.      Time
       0    2.2086491e+06   7.194063e+03   0.000000e+00      0s
    1311    3.1234016e+06   0.000000e+00   0.000000e+00      0s

Solved in 1311 iterations and 0.06 seconds
Optimal objective  3.123401551e+06
Optimize a model with 2319 rows, 4044 columns and 12386 nonzeros
Coefficient statistics:
  Matrix range     [1e+00, 3e+02]
  Objective range  [5e+01, 1e+06]
  Bounds range     [0e+00, 0e+00]
  RHS range        [1e+00, 1e+04]
Presolve removed 52 rows and 594 columns
Presolve time: 0.02s
Presolved: 2267 rows, 3450 columns, 10844 nonzeros

Iteration    Objective       Primal Inf.    Dual Inf.      Time
       0    2.2086491e+06   7.194063e+03   0.000000e+00      0s
    1311    3.1234016e+06   0.000000e+00   0.000000e+00      0s

Solved in 1311 iterations and 0.06 seconds
Optimal objective  3.123401551e+06
Optimize a model with 2316 rows, 4044 columns and 11908 nonzeros
Coefficient statistics:
  Matrix range     [1e+00, 3e+02]
  Objective range  [5e+01, 1e+06]
  Bounds range     [0e+00, 0e+00]
  RHS range        [1e+00, 8e+02]
Presolve removed 50 rows and 594 columns
Presolve time: 0.02s
Presolved: 2266 rows, 3450 columns, 10840 nonzeros

Iteration    Objective       Primal Inf.    Dual Inf.      Time
       0    2.2086491e+06   7.026188e+03   0.000000e+00      0s
     971    3.1234016e+06   0.000000e+00   0.000000e+00      0s

Solved in 971 iterations and 0.06 seconds
Optimal objective  3.123401551e+06
Optimize a model with 2320 rows, 4044 columns and 11912 nonzeros
Coefficient statistics:
  Matrix range     [1e+00, 3e+02]
  Objective range  [5e+01, 1e+06]
  Bounds range     [0e+00, 0e+00]
  RHS range        [1e+00, 8e+02]
Presolve removed 1177 rows and 1743 columns
Presolve time: 0.02s
Presolved: 1143 rows, 2301 columns, 6799 nonzeros

Iteration    Objective       Primal Inf.    Dual Inf.      Time
       0    2.3953519e+06   6.146322e+03   0.000000e+00      0s
     616    3.1234016e+06   0.000000e+00   0.000000e+00      0s

Solved in 616 iterations and 0.03 seconds
Optimal objective  3.123401551e+06
